%%MatrixMarket matrix coordinate real general
662 662 2341
1 1 2024635.8726089997
2 2 11280.542858010002
3 3 3714.3003384035997
4 4 38.304030450625
5 5 77.495854867928983
6 6 212.30617273289997
7 7 54.203446565401002
8 8 19784.78549056
9 2 -289.50881137669802
9 9 30.697428356675999
10 10 1083.1431360996003
11 11 43.264729673649001
12 12 390.55166326440002
13 13 36.845215640676003
14 14 621.13549230809997
15 15 136.2927828025
16 16 120.73658352040002
17 17 25.948020966399998
18 18 449.89676399289999
19 19 36.532377816804001
20 20 861.06446721000009
21 21 241.79192611559998
22 22 212.36358528999997
23 23 31.279288798520998
24 15 -44.629267469040002
24 24 23.194472452095997
25 12 -515.10925903808004
25 25 4576.7471007556005
26 26 23.851482904803998
27 22 -58.500257537583991
27 27 26.139067319043995
28 28 124.2411183225
29 29 479.1397033476
30 30 30.224144527201002
31 31 539.06995169440006
32 32 80.947952363664015
33 28 -148.80365207880001
33 33 135.73112113690001
34 23 -102.221968826292
34 34 3424.6863734724002
35 35 49.252338036000999
36 36 315.93960459609997
37 37 595.03991503359987
38 8 -9076.9688030136003
38 38 6385.9213510415993
39 39 2106.9825875344
40 40 48.358477608675997
41 41 169.89375854890002
42 42 1275.5097959184002
43 43 61.000707987025002
44 44 445.14037272249999
45 7 -75.411727047991008
45 45 98.59715475210001
46 46 101.22211124639999
47 47 25.943742249999996
48 23 9.9030308578399993
48 34 -433.11800375999997
48 48 125.69055699240002
49 10 -166.65637379755103
49 49 62.457551254080997
50 50 191.05984755360001
51 51 88.015281669315996
52 52 273.73636320039998
53 53 249.59544598810004
54 29 -184.49418753149999
54 54 128.97213642810001
55 55 75.55409745859599
56 56 150.43930123690001
57 16 -124.817462076384
57 57 97.150513398016002
58 58 418.64024448999999
59 59 49.261700494224002
60 60 730.46035062090004
61 61 148.75997875839997
62 62 44.798604966976001
63 63 112.7022161769
64 64 470.15552462490001
65 7 -38.8720255932
65 65 31.246557179044
66 66 366.61871434410006
67 44 -167.45407564042
67 67 549.64176691360001
68 37 -793.96938116159993
68 68 577.85909768999989
69 22 6.3621659863919993
69 27 -63.301831162271995
69 69 598.07881692249998
70 70 1143.0836426303999
71 71 299.63609999999994
72 72 1681.8611102500001
73 73 1151.6962132225001
74 74 1682.6871631249001
75 21 -390.40932886547006
75 44 -141.85865428740001
75 70 -713.55529999999999
75 71 -492.42380558260999
75 75 1409.7028669201002
76 76 17.195104303203998
77 77 580.63601103209999
78 78 112.98627025
79 79 121.8986021929
80 12 -638.54334078480008
80 14 -635.22554223149996
80 80 690.45865649639995
81 46 -105.15453072910999
81 81 337.17589752249995
82 82 178.01430084
83 5 -125.785908616368
83 83 117.06006552490001
84 84 2310.0413951521004
85 85 157.92873498089997
86 15 -33.941865182500003
86 86 29.768045120100002
87 87 248.0004488809
88 88 646.17894200249998
89 23 -67.365415905688991
89 89 126.68177809000001
90 13 -38.709400810448003
90 90 51.945144460803995
91 91 236.14438166009998
92 92 558.00124620250006
93 93 38.078414734441004
94 94 510.60090839039998
95 3 -3045.7823046551998
95 95 1289.5869930724
96 31 -210.01288616030001
96 96 203.01747249639999
97 31 -247.46875835968004
97 97 314.64373923999995
98 41 -312.93528926744
98 98 381.89875337289999
99 99 6.9728370157690005
100 74 -612.19178707679998
100 100 135.20829096809999
101 101 87.741063680400003
102 102 496.91855138889997
103 103 494.87962189209998
104 39 -2037.3565078302001
104 104 1019.2145640195999
105 8 1595.0488403994
105 38 -5147.1294676585994
105 105 2796.7153406404
106 10 -1249.2041935551999
106 106 652.88528462440001
107 107 10844.473114239998
108 29 32.226423157390002
108 54 -223.04042083956
108 59 -62.046330079355997
108 108 731.75497794089995
109 6 -125.990298979245
109 109 86.572436233760982
110 110 174.85143145960001
111 111 86.339052518160997
112 112 79.217565180625002
113 63 -249.76099624366
113 74 -396.06047781211993
113 113 1248.9078252120999
114 114 353.39600936889997
115 115 100.1642674041
116 116 1052.0947447201002
117 8 -962.22369331541995
117 72 -656.34656508570004
117 117 300.63155801290009
118 77 -1839.9196174935
118 84 -1374.2897122845
118 118 2731.1347752676002
119 8 -4416.376038888
119 119 3220.9767883224999
120 8 430.21847874719998
120 119 -1567.1935242262
120 120 612.08788696810007
121 54 66.903252848739996
121 59 20.98113389988
121 108 -481.77960486040001
121 121 218.07876090010001
122 11 -68.319795938211001
122 20 -389.73539824704
122 122 684.05368553639994
123 123 204.08179591839999
124 11 -97.450131011477993
124 40 -71.336276470368006
124 5 28.263914857776001
124 83 -114.39144424058
124 124 228.75201270249997
125 58 -105.802069166864
125 125 70.773252083856008
126 4 -36.641906018157997
126 126 50.008686309124002
127 127 418.79862528489991
128 128 727.89773697639987
129 73 -1459.5133276112999
129 116 -1690.7736607434999
129 129 1760.4771206415996
130 130 99.885013074000994
131 131 4948.1573450596006
132 56 -72.847617794640016
132 132 134.54863224010001
133 74 -475.63484375000002
133 133 394.44700727610007
134 115 -118.19273300982
134 108 37.404997157220002
134 121 -78.309247295250003
134 134 87.45541509760001
135 107 -11727.8240459184
135 135 8412.1658429796007
136 23 6.5883795196279999
136 34 -276.63177867520699
136 13 12.512671004391999
136 90 -67.087454268249999
136 136 70.96507330192901
137 15 -34.943455792511998
137 137 22.420187120015999
138 138 282.44365272359994
139 85 -160.40475224095999
139 139 139.5835917025
140 28 -121.0332394669
140 140 226.7237890225
141 20 -1303.0523155382
141 141 842.90579846560001
142 72 -3396.2104191614999
142 73 -1574.0997481439999
142 78 -459.30695173560002
142 119 105.95465808434001
142 120 -539.07747796351998
142 138 -1240.112931351
142 142 5343.9243346224994
143 7 7.7690923943999994
143 65 -53.379276968743994
143 143 225.9174333025
144 78 -103.780567421086
144 130 -86.002152284928002
144 144 91.115462975363997
145 145 277.13326318240001
146 44 -103.64361751435999
146 61 -114.09631999999999
146 146 266.58268456959996
147 147 345.49627150090004
148 148 560.74524160359999
149 30 -26.9973466014
149 56 -68.730546524682012
149 149 36.951943173720998
150 150 65.069745162724004
151 56 -56.979953115580003
151 151 132.01021878490002
152 62 -26.133919785269999
152 11 8.1247446185550007
152 20 27.335428720679996
152 122 -125.00067086880999
152 152 35.500790728516002
153 153 31.244913781225002
154 30 -40.537230541890004
154 154 53.407755579721005
155 11 12.263496600927001
155 20 41.260119910152
155 122 -203.40302006367202
155 128 -91.777194852864
155 155 71.652365011984003
156 58 17.399553356948001
156 125 -153.21240952049203
156 156 569.00615982250008
157 32 -207.30352115351201
157 157 600.40386985959992
158 12 38.768108984895996
158 25 -555.49143490612005
158 158 281.67009598089999
159 159 2260.9093029604001
160 160 994.66562842239989
161 88 -549.44141459260004
161 161 383.3454642241
162 110 -616.07808474831006
162 162 2975.2061157025005
163 163 194.33698263040003
164 164 409.99608268960009
165 15 -23.537814173198001
165 165 68.223040556176002
166 3 -3157.9615893263999
166 23 26.484857384399998
166 34 -1738.0509502320001
166 166 2126.1155004324
167 23 25.71593188364
167 34 -1492.0481782100001
167 94 -1010.4044811924
167 167 1155.0604309923999
168 51 -95.321754186879986
168 4 11.905188190671998
168 126 -70.912930058319986
168 168 88.119674035263984
169 169 96.303840156303991
170 41 38.302031144909002
170 98 -121.14625717868
170 170 117.53270156250001
171 50 -457.38036002479993
171 114 -189.57101348025
171 171 1468.3396299663998
172 172 173.33065356009999
173 169 -206.29687304795999
173 173 862.14583578240001
174 174 57.479157413001005
175 175 203.4999253156
176 56 -55.161242264055005
176 176 32.686295799249002
177 177 500.19143580159999
178 178 127.4135258176
179 179 471.96606604839997
180 180 1479.2900591716
181 181 339.15679076409998
182 47 -22.790541591627999
182 182 19.449458303716003
183 183 186.95639824
184 63 -211.38590060555998
184 184 910.91388782249987
185 50 -131.13706939570002
185 185 147.44516328999998
186 50 38.205272693929992
186 114 14.455362504350999
186 171 -224.75127870888997
186 186 176.46385896090001
187 15 5.70961851744
187 24 -20.944867050479996
187 187 26.130560581635997
188 44 -437.62280306013599
188 61 14.336916
188 146 -114.91848209753999
188 188 247.58707801
189 110 -97.542841680470005
189 189 107.7906997729
190 62 -72.943697664258011
190 190 82.264138121763992
191 10 89.403861799520001
191 106 -137.115592280822
191 183 -63.405764742001999
191 191 52.113989876003998
192 16 23.164503179328001
192 57 -221.09789820443203
192 128 -1811.6311735535999
192 28 48.214358170169994
192 140 -650.88350649059998
192 110 25.826443749999999
192 189 -360.49712500000004
192 192 2237.0355332361005
193 12 88.746259380479998
193 25 -1794.1539514392
193 107 -2834.5537715317996
193 160 -1511.3507802651
193 193 2650.2079032289002
194 115 -78.467454855360003
194 125 29.401471479100003
194 156 -210.21051055000004
194 194 101.9120535225
195 84 -3435.4297801026
195 195 2694.4529219343995
196 23 3.6484858920400001
196 34 -152.85397717942001
196 85 -124.810324351776
196 196 68.498035533315999
197 71 -323.77819256892002
197 88 -620.38878883719997
197 197 464.11722182439996
198 70 -1642.4444991135999
198 198 1237.1511843856001
199 8 -2484.5938397016002
199 119 -2253.8816303327999
199 199 8464.4581662000983
200 116 -524.17000733838006
200 200 464.55336224999996
201 19 -97.778737184896002
201 47 -68.966177886099999
201 15 6.8845549231250009
201 86 -90.163164629600004
201 183 -363.46975354499995
201 201 419.96099970250003
202 26 -38.415265295795997
202 54 13.625528621515999
202 59 4.2730215391919995
202 108 -93.716365966719991
202 112 -78.470915706
202 202 166.17659190250001
203 66 -607.40785595447994
203 159 -781.62289016916998
203 203 7280.6747439969004
204 204 3215.3912475364
205 66 53.387995515408001
205 159 54.016094657808004
205 203 -933.54155149248004
205 205 266.85868835609995
206 55 -473.25856007289605
206 125 8.0754034698400012
206 156 -159.39213436119999
206 204 -6174.3007656483996
206 206 4881.6408291876005
207 180 -4957.8432752367999
207 181 -2004.7626537439
207 50 35.819181459989998
207 185 -727.55369920583996
207 171 38.887507061970993
207 186 -926.12808054585003
207 84 602.88176644359999
207 195 -2497.3772429299997
207 207 8179.8241000644002
208 15 5.5483904033279998
208 137 -27.504943131504
208 47 4.8251136459039996
208 182 -20.586623319887998
208 208 33.888697959999995
209 15 2.6216189534729999
209 165 -25.940894200473
209 137 3.1365402132960001
209 182 2.422140321888
209 208 -11.129713303212
209 209 11.724138946808999
210 7 13.506035770466001
210 45 -48.520151196638004
210 99 -22.123478212080002
210 210 32.919445577209004
211 8 -2899.1206681480999
211 119 757.57600000000002
211 199 -7944.7190000000001
211 211 4474.5249477721009
212 10 15.597018023290001
212 49 -69.091254434190006
212 212 103.73585460639998
213 6 -333.95240567039997
213 56 21.805972509212999
213 151 -298.65563337707999
213 213 456.35854250249997
214 41 -62.562570909999998
214 27 3.825713635179
214 69 -53.02148830262
214 214 27.197998128899997
215 79 -151.86635090223999
215 65 10.570280955937999
215 143 -106.2082403096
215 215 120.55710602250002
216 10 -118.96836785318001
216 93 -126.65963855007899
216 216 873.03998256249986
217 74 -1043.6721280943998
217 82 -224.91024999999999
217 217 512.7253750335999
218 218 292.41307800810006
219 111 -35.662717687026998
219 219 26.172023539599998
220 148 -387.87558658559999
220 220 1035.1675629603999
221 101 -133.53374975309998
221 130 -122.32912953760899
221 221 141.09163523999999
222 1 -4104.9245717625599
222 2 7.6421045210689993
222 9 -45.020532592174
222 172 -89.402117187499996
222 222 94.506240130624008
223 17 -39.387675175496
223 20 149.80824619486998
223 141 -258.10211228875301
223 223 88.818881838129002
224 61 -284.94779895873
224 123 -318.95110884942
224 44 8.0667516536639994
224 146 -117.43596769608
224 150 -145.70452366135999
224 224 575.44381432809996
225 225 165.12661202560002
226 46 54.246244256680001
226 81 -876.29169890080004
226 226 1714.0204445329002
227 22 -403.90575150310002
227 31 48.447549014383007
227 96 -298.11920994277
227 227 409.81832136090003
228 2 -21751.509999999998
228 5 -287.40936759404104
228 28 33.439627201664997
228 33 -629.89536028706993
228 228 12388.847547039999
229 102 -422.02162110108003
229 114 -925.85781475199997
229 98 27.328589686409998
229 170 -355.39974680819995
229 229 1681.9488738649
230 32 113.33552324738001
230 157 -914.58927828139997
230 62 20.557472172890002
230 190 -153.28026608836001
230 230 646.85936156490004
231 17 -39.832826960080006
231 6 27.676235173839999
231 151 27.072390638367001
231 213 -98.268073818459996
231 157 49.009949563860005
231 190 11.887796499210001
231 230 -99.19533384990001
231 231 135.39347065690001
232 58 -99.840063402816
232 232 16.564932560016
233 101 -237.23031598336001
233 159 -4798.4687172108006
233 175 -1168.0397624504001
233 116 39.148136470403998
233 200 -359.54725231175996
233 233 4571.6827462084002
234 7 10.778791983123
234 45 -63.287423103929996
234 76 -39.861615889901998
234 234 245.75202519039999
235 45 7.767370663206
235 76 6.3194823404019997
235 234 -71.933265855835998
235 235 52.022781633123998
236 19 -26.329940903708
236 236 26.157343080624997
237 52 -348.70033885679999
237 147 -90.886324459020003
237 237 199.95769960959998
238 29 -667.85182677110004
238 58 -104.26638751784999
238 238 360.36453989290004
239 11 13.444149808152
239 40 9.6737066642160006
239 83 13.201110884052
239 124 -62.180452593251999
239 56 8.1279426118650004
239 176 -30.103116074026001
239 239 31.851586725841003
240 50 44.302676324650001
240 114 16.762378620255003
240 171 -219.03749780962502
240 240 25.507600755025003
241 21 22.694264161220001
241 44 7.4659419552999999
241 70 30.8642
241 71 27.70574604362
241 75 -136.27642139594002
241 150 -51.669471823382999
241 241 43.659677357209006
242 24 6.3335465978079988
242 187 -41.400070338821997
242 242 75.31731688802499
243 243 247.61036620960002
244 116 75.849515625000009
244 200 -688.98062500000003
244 66 341.99718057455999
244 159 346.02070934256
244 203 -8938.9920991728013
244 244 4440.3591614404004
245 14 -1293.1550055760001
245 163 -952.95101032560001
245 178 -527.57771115813
245 81 392.0524369972
245 226 -3203.2403568046002
245 245 6146.6305602025013
246 3 140.38631682390002
246 95 -196.16143289988003
246 148 -113.04603721270399
246 246 64.470429305104005
247 94 -192.74476668439999
247 247 326.62140092889996
248 248 274.15842275289998
249 178 -180.87547935576001
249 249 491.69514563999996
250 26 -28.053271435189998
250 250 29.378231988560994
251 18 -83.36490880512001
251 107 -2808.3933682144998
251 135 -2489.7857020163001
251 251 2065.1998535809003
252 82 -223.77239299818001
252 252 331.59353828410002
253 66 -1217.7898288858
253 39 150.44834807727
253 104 -598.34551840796996
253 88 89.977956851960002
253 161 -676.24296659127992
253 203 65.684808495936011
253 205 -633.21017307128
253 253 5210.9586377809001
254 110 413.22308677685999
254 162 -5080.2130267380007
254 14 147.24299271149999
254 163 121.41086602319999
254 178 69.204177162630003
254 226 314.56446303870001
254 245 -1595.526440787
254 254 3274.0425705625003
255 76 -16.397758685447997
255 15 1.647059933415
255 165 -16.446450911909999
255 255 12.466082578755998
256 256 2.7777788888889998
257 257 2.7777788888889998
258 63 129.53367499999999
258 184 -1469.1395
258 55 21.591739581984001
258 156 6.0956265757199999
258 204 174.84044689221
258 206 -352.87799021013001
258 258 817.05820469290006
259 4 -68.003687453525004
259 148 -382.20361778710003
259 259 186.62975156250002
260 148 -91.466713166094991
260 169 -78.654427096853993
260 260 55.990125849025006
261 138 -74.122986958651992
261 26 10.335854166027
261 108 11.221023984716
261 112 17.221464260208002
261 202 -98.930215283107003
261 261 60.767590757449
262 27 20.988912688218001
262 69 -394.23482126789997
262 123 -178.82154904961999
262 262 248.26098968999997
263 263 259.86890820250005
264 42 -3216.2566282560001
264 43 -337.22851491223997
264 93 -158.82334104035198
264 111 -433.76145117903303
264 264 2952.9355864463996
265 36 -124.81358328738001
265 63 23.325251679417999
265 74 22.260612068811998
265 113 -190.12993659841996
265 265 80.288409744400013
266 10 45.897888009180001
266 93 85.448184482609989
266 216 -1358.9992875593998
266 19 6.5002866508840009
266 236 -88.059602576334996
266 266 720.98747846409992
267 8 -8504.1632683666994
267 39 -2123.1276626685003
267 267 3811.9103320489003
268 45 10.562294195807999
268 76 8.593413979935999
268 234 -101.44385248195199
268 187 11.371599121658001
268 242 -63.408859611501995
268 268 64.985895872688985
269 148 133.54702457265
269 220 -1244.9638959524
269 94 63.191130868879995
269 247 -675.15676454410004
269 269 1060.4206088100002
270 70 270.56281385279999
270 198 -575.97938885880001
270 102 27.662521383125998
270 114 64.231873514639986
270 170 28.439878305779995
270 229 -234.54184871123996
270 270 240.6534792601
271 32 -51.893532448944001
271 6 21.252697154370001
271 109 -75.640023940733997
271 111 6.5361694064110001
271 219 -38.534064135824003
271 271 89.813301552144011
272 51 -248.51805567389601
272 52 -336.36750319870998
272 172 -569.80979886014006
272 169 126.8899029927
272 173 -1873.1634790653
272 272 2340.0390386025001
273 21 -322.71621724497999
273 102 -720.52171874999999
273 273 567.47434375839998
274 274 31.175170741728998
275 63 50.509134071440002
275 74 48.203734516959997
275 113 -438.21987445279996
275 125 11.960550601496001
275 156 -89.839860006640009
275 275 139.53681000489999
276 74 94.126484375000004
276 133 -507.38506402429999
276 25 67.132111707839996
276 158 -398.31942606479998
276 276 495.16396519839998
277 16 -525.70914999999991
277 37 -948.37799999999993
277 46 -662.94355888778989
277 60 -3275.1581981052
277 131 -604.76810176650008
277 107 819.49162332240007
277 135 -2543.7485985017001
277 160 -1675.8946476929
277 277 8864.9399375160992
278 125 18.562696736752002
278 156 -206.54119646496
278 278 839.8050447720999
279 279 928.81034743209989
280 163 -77.30036253283501
280 2 378.9314
280 5 9.0675138889380005
280 33 19.412469945613999
280 228 -449.84871086580597
280 280 54.906306794641004
281 36 -1581.8897898503999
281 37 125.33211109439999
281 68 -970.65902917200003
281 131 -11551.109910888799
281 174 -837.79377558650106
281 204 -1264.8804641256002
281 281 10593.24685225
282 59 -77.514409736364996
282 26 7.3444021094299998
282 250 -35.919269827125994
282 282 62.332682961025
283 55 24.4286128944
283 156 21.549076466304001
283 204 197.81220402350002
283 206 -314.97167568240002
283 278 -137.86606678391598
283 283 60.891116332176004
284 58 -85.359358701389993
284 112 -104.434842403535
284 8 33.701522655520002
284 119 42.075861949120004
284 199 -285.50098769352002
284 284 116.77892934490001
285 125 22.719320596882003
285 156 -155.69143126866001
285 278 -1174.5423414383999
285 285 681.55717422249995
286 1 -16355.239779129601
286 34 31.055899999999998
286 48 -137.8741
286 286 267.76871404960002
287 43 -64.367213742195005
287 56 26.089770613526998
287 132 -263.11813360337999
287 49 24.313875082119999
287 212 -186.95345813507998
287 187 5.669691782548
287 242 -52.622970978510004
287 287 368.07611979610004
288 31 70.670150209360003
288 97 -413.83579873449997
288 41 57.145443417159996
288 98 -221.21939410319996
288 288 311.33720256249995
289 18 -1308.604800888
289 12 143.72563554048
289 25 -2731.7554165776
289 289 1966.9517711088999
290 55 -36.580719876679993
290 57 9.091590051072
290 128 57.321356682239994
290 140 24.532100660159998
290 189 14.688599999999999
290 192 -122.95081114137601
290 290 25.182993646755996
291 38 547.4531018701
291 105 -1337.6989352819
291 66 369.3443076639
291 104 159.20018801540999
291 161 204.13284563267999
291 205 198.14614225308
291 253 -3158.2298000430001
291 291 1749.3414995169001
292 85 34.444753306696001
292 139 -114.081086951776
292 65 12.268539008431999
292 143 -118.50940947596798
292 292 99.499388103843998
293 40 -75.189333454847997
293 23 29.015976224894999
293 89 -177.77310021135
293 293 175.34606174890001
294 13 -69.901404004203997
294 79 -112.43054791830998
294 30 13.113334488618001
294 154 -96.921212086061999
294 40 8.4211909314559996
294 89 16.41460302114
294 293 -66.343709622599988
294 294 258.84691123839997
295 234 12.790712030712001
295 235 -55.629555412728003
295 13 7.5252236587040002
295 79 9.8860178476239984
295 154 9.881921950992
295 293 5.3958297382719991
295 294 -53.779146633119993
295 295 41.673480249999997
296 44 74.003900005920002
296 67 -938.93270721120007
296 101 14.077953324544
296 159 190.34568189432002
296 175 65.168295660639998
296 200 18.420548092367998
296 233 -419.67820687776003
296 296 588.22450115560002
297 297 34.158589366224994
298 2 -3037.7850142853999
298 298 537479.89015203994
299 299 158841.06627169001
300 299 -2701.4359150717892
300 300 44.444448888889006
301 301 97048.760202249992
302 302 97048.760202249992
303 10 -333.54346664565003
303 303 735.85731035610002
304 15 -125.9843916072
304 10 53.937427939590002
304 303 -482.71845336000001
304 304 510.45765675609994
305 12 92.689924728959994
305 25 -6609.0707119008002
305 305 124269.85687249
306 306 321631.89987599995
307 306 -70239.934463106008
307 307 22296.850633690003
308 31 -3590.9721643759999
308 306 -25965.717038079998
308 308 82452.825316000002
309 306 -39088.265864733992
309 309 420577.02306480997
310 23 18.42213293168
310 34 -2632.0302890312
310 310 28653.890205159998
311 34 462.17440000000005
311 310 -19482.096000000001
311 311 100982.73017284001
312 2 1508.0226206418001
312 298 -483816.91370534996
312 34 131.29958747040001
312 310 -6787.5578538360005
312 312 183209.93771809002
313 2 1064.4863002704001
313 298 -302131.65754127997
313 313 86505.162629759987
314 314 354686.35358025006
315 314 -44349.527999999998
315 315 263356.48357928992
316 316 285016.21593481
317 317 67155.560907209991
318 53 -3985.8513908581003
318 318 55928.939049000001
319 58 -920.27056614880007
319 319 10961.27335521
320 320 645.80887907289991
321 306 2381.8028319638001
321 309 -110505.47540368
321 321 711163.15436400997
322 64 -12592.559340585902
322 314 5970.1480000000001
322 315 -160038.0260935
322 322 312561.83662729006
323 323 4413.6623731600002
324 58 459.55881250000004
324 319 -16005.3125
324 324 22918.599043210001
325 325 71669.179521000013
326 27 22.958379434339999
326 69 -929.89431882899999
326 306 355.72892965779994
326 309 -7863.4368262369999
326 326 3875.934049
327 327 9159.5427302499993
328 21 41.992807815702001
328 44 13.81476233223
328 70 57.110219999999998
328 71 51.265908457541997
328 75 -1883.4517089430199
328 306 817.96846747879988
328 309 -23931.964216709999
328 328 85407.958312959992
329 329 20408.151020410001
330 330 1568.4736476816001
331 87 -2725.2112371679
331 325 -23352.409986195002
331 331 24744.202348409999
332 306 355.68970136299998
332 309 -7389.8951798276994
332 69 205.4379511674
332 326 -1933.7825649895999
332 332 1496.6406398735999
333 91 -3394.1038542320998
333 333 42231.40080784
334 91 876.61102023930005
334 333 -28279.5230018
334 334 84237.632263839987
335 91 876.61102023930005
335 333 -28279.5230018
335 335 84237.632263839987
336 299 -61690.717657690002
336 320 -5567.8049982128996
336 336 37512.717123999995
337 92 -5770.9365000475009
337 337 48700.059624810005
338 338 79218.549472409999
339 299 -31534.810842920004
339 339 29990.411870760003
340 338 -2482.6778652808803
340 299 448.43250373320006
340 339 -1541.7952275064201
340 340 271.04419809639995
341 306 6522.1798947319994
341 309 -172689.46900421998
341 341 41143.984464039997
342 306 6522.1798947319994
342 309 -172689.46900421998
342 342 41143.984464039997
343 103 -30486.677290442098
343 299 -406219.39605896996
343 314 6060.6080000000002
343 315 -282027.01449103997
343 343 1817629.7580249999
344 54 32.262224551555001
344 59 10.117565654909999
344 108 -327.34618948759999
344 344 1015.7829508225
345 63 60.504678269380008
345 74 57.743049884919998
345 113 -2401.0026524374002
345 25 525.19129313039991
345 305 -17791.234520549999
345 345 32518.259715240005
346 15 37.943293351340998
346 165 -86.347184474502001
346 303 89.399059504013991
346 304 -361.52872414805995
346 346 277.84589306410004
347 77 348.5600644836
347 84 198.15397062119999
347 118 -3431.5289991064001
347 347 34212.273183359997
348 11 15.188268157653001
348 20 51.100414979927997
348 122 -919.70868117307998
348 348 10047.35593225
349 127 -8345.0949485448982
349 349 150015.23312399999
350 127 1255.4950254833
350 349 -35522.409160256997
350 350 36747.854827290008
351 122 181.46377281735002
351 348 -3324.9558271140004
351 351 1095.2300449475999
352 352 21021.723127689998
353 353 1303.8403822129001
354 354 93.531722592399987
355 355 1673.0791328240998
356 122 291.06795999999997
356 348 -6035.8991999999998
356 356 2566.5348945604001
357 72 114.46888919413999
357 73 56.561079185520001
357 78 21.097939305456002
357 120 21.190931616867999
357 138 53.050386737400004
357 142 -747.30214527669989
357 327 -18538.624914171
357 357 14688.567372959998
358 65 9.3690252981479993
358 143 -165.62151472242002
358 355 -1382.8952235293998
358 358 944.3746932624
359 145 -4833.6096252983998
359 53 1837.0458264690001
359 318 -59325.515424630001
359 359 74915.138659689997
360 145 1080.9948895124001
360 318 7550.5914980369998
360 359 -28206.261940347995
360 360 25814.881034009995
361 53 473.15339378310006
361 318 -10409.273435304
361 361 12337.122470759999
362 318 52.662360059640008
362 361 -198.40157204241601
362 362 3.0919564928160002
363 363 11499.666932250002
364 363 -191.65618914681602
364 364 3.0919564928160002
365 365 16769.447109610002
366 25 976.98631586400006
366 305 -28442.30377898
366 366 11109.539443239999
367 44 8.4766325761919994
367 61 12.243648
367 146 -125.65781439791999
367 309 93.665966491950002
367 326 162.21076302309001
367 332 -536.93051383749003
367 367 611.32809750249999
368 146 9.3691822717440001
368 332 25.917969329712001
368 367 -85.050384517344
368 368 9.3691822717440001
369 147 -1347.5540191696
369 369 4441.4160716025008
370 35 -633.33634916255096
370 34 111.96084715991999
370 310 -2446.7164484102996
370 354 -898.43066842140001
370 370 6926.6586249025004
371 301 -221186.77450174998
371 371 158788.70128899999
372 302 -219019.64040449998
372 372 153293.00020225
373 373 4118.0943548644009
374 374 3971.3855383448995
375 352 -316.42011609614997
375 373 -145.00144680810502
375 374 -141.42979807509002
375 375 38.400640080624996
376 153 -656.43664944322506
376 91 1168.5922820838
376 333 -24133.047088752002
376 376 12509.706670240001
377 317 -224325.60960803
377 64 4713.7107752910006
377 315 165354.52870641
377 322 -391937.01390039001
377 103 19513.938986769997
377 299 203998.3374133
377 343 -2273713.203369
377 377 1547132.970244
378 306 -91195.197429239997
378 378 59785.580218809999
379 306 -86934.914655839995
379 379 42681.24611136
380 316 -408208.32402064005
380 380 278227.23825624998
381 306 5027.6521820010003
381 307 -20998.199475044999
381 381 67674.692620959991
382 164 -7222.3543210896005
382 349 4511.0065093828998
382 350 -38833.624067992998
382 301 27089.260327780001
382 371 -63906.346547959998
382 307 2018.9784110640001
382 381 -23487.544058687999
382 382 113191.87359999999
383 50 147.56254681089999
383 114 55.831825185630009
383 171 -6937.7714155516005
383 118 581.86803996239996
383 347 -22488.57520716
383 383 139951.10928015999
384 142 46.904309568479995
384 327 1042.3180039607998
384 357 -1816.680806892
384 384 771.25343510250013
385 177 -10527.1723584256
385 333 14441.792328522
385 334 -93490.091842680005
385 335 -93490.091842680005
385 145 495.4560395812
385 318 3460.6881090810002
385 359 -18071.674998226401
385 360 -32052.86906211
385 363 -14854.838057073001
385 385 201003.73422336002
386 314 6896.5520000000006
386 315 -134808.38911798998
386 64 1967.610672387
386 322 -82244.354236480009
386 299 6677.353178419
386 320 1629.0238678188998
386 336 -34675.804472224998
386 177 447.29919999999998
386 334 2531.6460000000002
386 335 2531.6460000000002
386 359 595.23820000000001
386 360 1052.6315999999999
386 363 534.75940000000003
386 385 -15911.897999999999
386 386 120589.85486024998
387 177 92.762160533759996
387 334 525.01983608879993
387 335 525.01983608879993
387 359 123.44216458295999
387 360 218.29768857647997
387 363 110.89990169831999
387 385 -1876.7399144607359
387 387 17.203050294335995
388 179 -3281.6470707944
388 92 405.04209449900003
388 337 -6001.5719026480001
388 359 2798.9255429915002
388 360 -12500.03498276
388 388 16726.429962490001
389 8 144.8790983968
389 119 180.8794518208
389 199 -1756.7420374392002
389 319 1470.588125
389 324 -4859.7970472798997
389 142 75.711695336160005
389 327 1682.4821404536001
389 357 -3471.4349536055997
389 389 3041.7971532001002
390 146 31.024853067840002
390 332 85.824052403820019
390 367 -1445.862053225
390 390 13905.999021689999
391 66 32.699398416040999
391 159 33.084100330841004
391 203 -814.24342494656003
391 367 545.52311032420005
391 390 -9546.2486179960997
391 391 3533.7805482721001
392 55 34.482515865407997
392 156 9.734858986639999
392 204 279.22430524801996
392 206 -481.04621252043995
392 392 200.79003360160002
393 323 -22628.24814263
393 393 143899.67014921
394 25 672.63110202600001
394 305 -26786.210525220002
394 122 135.07889164379
394 348 -6944.7344700880012
394 323 4672.0130764972
394 393 -60121.254184683996
394 394 75008.227701690004
395 218 -2622.9056836941004
395 53 624.45017077709997
395 318 -14734.323477096001
395 177 883.99047582239996
395 334 5003.2527492869995
395 335 5003.2527492869995
395 359 1176.3600284678998
395 360 2080.2995152901999
395 363 1056.8367134492999
395 385 -23107.500982662001
395 395 18573.710253160003
396 148 41.658336666000004
396 220 -1478.7409126560001
396 396 45938.249090409998
397 397 3600
398 127 6252.0039003659995
398 349 -251937.25251408
398 164 1406.1360211184001
398 350 5106.2087009804
398 371 6038.6468357488002
398 381 2734.0331583552002
398 382 -53734.968783183998
398 397 -9946.8719999999994
398 398 191269.42446095997
399 302 24922.119999999999
399 372 -45382.207999999999
399 397 -4715.0219999999999
399 399 30888.449151210003
400 338 -59761.011734139996
400 299 6061.2302237200001
400 339 -48847.127471890002
400 397 -6626.6300000000001
400 400 73620.782892250005
401 225 -2952.4728078496
401 349 10992.0122054402
401 350 -23216.402666165999
401 352 -31829.381601073997
401 382 1706.2512796888
401 397 491.40039999999999
401 398 -16075.058435099998
401 401 47050.555449959997
402 102 52.410902620545002
402 114 121.6971664038
402 170 53.883724906349997
402 229 -701.65249607699991
402 171 453.42672000340008
402 347 1084.2388985867999
402 383 -11383.802235645398
402 402 2326.9654242769002
403 17 8.5738271996160016
403 213 10.723668586704001
403 230 9.6360921505440018
403 231 -136.28119205232002
403 348 426.43920000000003
403 356 -819.51379699200004
403 403 686.93369673640007
404 45 9.3372768283739997
404 76 7.5967478034579994
404 234 -118.08671035809999
404 165 13.844138221808999
404 304 36.802973694708996
404 346 -128.89601745333999
404 143 28.253351664108003
404 355 150.70274673803999
404 358 -361.5281378235
404 404 242.76974234490001
405 405 125.72172600489999
406 243 -1961.2593277456001
406 113 351.19430701639999
406 305 1053.2800819451998
406 345 -9123.9933076439993
406 179 775.88487585840005
406 337 612.3849020184
406 360 1539.4086822660001
406 388 -8508.3236386680001
406 406 11859.732725760001
407 14 139.92308965250001
407 163 115.375157612
407 178 65.763824187050005
407 226 298.92649390450003
407 245 -1645.8685611885001
407 2 67.776285763860002
407 298 -15017.735666984399
407 25 612.0420888348001
407 305 -16394.408758092599
407 407 4735.7739836415994
408 323 2385.4050141216003
408 393 -51330.374625791999
408 408 508325.22274248995
409 147 207.07955054160001
409 369 -1368.1022179164001
409 218 79.906959260730005
409 318 184.69947822392999
409 385 184.69947822392999
409 395 -813.53281629891001
409 409 1429.6437409969003
410 34 192.57270518120001
410 310 -7340.8169356524004
410 35 119.35373940679999
410 354 164.47582402399999
410 370 -6195.3825121399996
410 220 1249.7498000400001
410 396 -103207.08765353
410 369 262.47759881280001
410 395 93.645603543519996
410 409 -6390.2585248208006
410 410 78995.847844000004
411 393 1690.3773063504
411 408 -26940.312060951896
411 411 1293.9293877128998
412 310 237.7557142178
412 370 242.60778431199998
412 396 2971.945357822
412 409 285.87969605440003
412 410 -4844.1545423408006
412 412 3423.7852121343999
413 314 -724623.4275376501
413 323 2934.1862181274
413 393 -60581.512037734596
413 408 -70036.255760988002
413 413 502350.37678224
414 248 -6762.041655345899
414 333 14460.577735089601
414 334 -72715.484878739997
414 335 -72715.484878739997
414 147 596.62341114200001
414 369 -17301.0589230925
414 153 168.87356292820002
414 376 -15216.945436732
414 218 606.38612048910011
414 318 1401.6200978331001
414 385 1401.6200978331001
414 395 -18727.640308305003
414 310 79.161532498970004
414 370 80.7770448988
414 396 989.51880001030008
414 409 95.184567590560007
414 410 -3196.0485501051003
414 314 25637.075214070002
414 393 2667.4417011877999
414 408 2273.2382508792002
414 413 -50789.143576066002
414 414 153533.96192280998
415 178 90.642172132799999
415 249 -4046.2443647999999
415 318 2376.9119237772002
415 361 -26205.904971552001
415 363 -25697.504759328003
415 410 631.20976859860002
415 412 -12284.7316368268
415 415 48014.363235240002
416 82 78.847582186979992
416 252 -1410.1617558400999
416 113 418.52862751140003
416 305 1255.2249802301999
416 345 -10045.9123815698
416 243 407.6589768572
416 388 925.24020910440004
416 406 -5635.5997851659995
416 416 11800.867971239999
417 66 145.11209705529998
417 104 62.548339463069993
417 161 80.201981438359994
417 205 77.849858869160002
417 253 -3371.6877098846999
417 319 4084.9668750000001
417 324 -25425.003764622001
417 357 189.9550915584
417 384 -4133.7240196479997
417 367 546.99513546280002
417 390 -19187.123318596001
417 417 56460.270427689997
418 256 -1410.156227031189
418 309 56980.056125356008
418 321 -1298255.2826994401
418 87 1157.9433545622999
418 325 4040.0771089205
418 331 -73656.601173418007
418 418 713056.78944361012
419 257 -107.50676650134901
419 31 457.32013843799996
419 306 1201.3888811465999
419 308 -13833.3345830322
419 164 438.27615716720004
419 350 1591.5455500382
419 371 1882.1756145303998
419 381 852.1661690016
419 382 -8642.3668756476
419 419 3948.5363252644006
420 25 500.93895168720002
420 305 -16994.277216227998
420 316 -106711.917889
420 420 32797.535980809997
421 31 2379.4694810000001
421 306 6250.9125167000002
421 308 -166453.68143050003
421 352 -33606.909998847201
421 373 -36422.948339864008
421 374 -35686.343435428302
421 225 446.18608255520002
421 350 1972.8533459595999
421 398 853.12563984439998
421 401 -25664.87682967
421 405 -5981.3417663519003
421 421 272731.58861641004
422 306 2863.2539448479997
422 309 -76260.663219840004
422 229 105.52531151069999
422 383 361.80110638759999
422 402 -3437.9429939786
422 308 4251.3741958000001
422 352 1135.8438538180001
422 373 1283.9974898480002
422 374 1260.5097611396002
422 401 717.79023183920003
422 405 231.79028356520001
422 421 -15093.410979472003
422 422 43217.462121610006
423 263 -3221.5840760475003
423 53 552.01221375400007
423 318 -9324.1536529150017
423 145 767.15761519399996
423 359 -21079.74225168
423 365 -13559.349618839999
423 305 2688.822306472
423 366 -12516.271776035999
423 423 33754.544920809996
424 42 134.26419280344001
424 43 20.398252946528
424 93 9.867186667456
424 111 25.626436466934003
424 264 -378.07085235028001
424 10 65.902215631999994
424 303 -870.13823811199995
424 353 -1536.0948844823999
424 231 43.022791009440006
424 356 127.37131228140001
424 403 -865.41639312480004
424 424 2136.8375288836
425 51 23.812538783484001
425 52 28.673750463797997
425 172 51.241054120806005
425 173 133.35024153725999
425 272 -341.22809371728005
425 248 128.35449638073999
425 334 826.43255979240007
425 335 826.43255979240007
425 369 292.52596957729997
425 376 234.19751984824001
425 395 274.89139589862003
425 410 36.819310151158
425 413 357.72666738212001
425 414 -3140.4656651956598
425 425 176.51699884090002
426 34 924.3488000000001
426 310 -26994.495999999999
426 348 203.40661055355
426 351 -1641.5241734320198
426 426 28276.642123559999
427 274 -852.07077153692899
427 355 -4058.8697925563001
427 35 279.60165136064001
427 310 6786.0526940300797
427 354 385.30600075519999
427 370 -9173.2655273279997
427 351 652.52855999999997
427 426 -25214.32
427 427 21615.58610176
428 16 85.350699999999989
428 37 136.56111999999999
428 46 108.58867419521998
428 60 461.35518588419995
428 131 62.757857605799998
428 135 233.6135716714
428 160 227.60180976619998
428 277 -6911.6315761413998
428 25 476.65090432440002
428 305 -14945.44903419
428 316 54945.040659340004
428 380 -119744.92121937001
428 348 2237.0877071990003
428 393 11091.753790053999
428 394 -70453.486210150004
428 428 96560.714860840017
429 279 -18831.147741506098
429 325 -181942.07894159999
429 329 -104324.78298827
429 92 2764.2286689500002
429 337 -94562.761352500005
429 372 6060.0912000000008
429 397 1515.0228000000002
429 399 -57810.823286178005
429 429 345058.26195556001
430 64 1734.6456000000001
430 315 11940.296
430 322 -54476.207999999999
430 338 3603.6040540539998
430 339 3663.0040659340002
430 397 666.66679999999997
430 400 -13107.062621412
430 279 260.48197961750998
430 325 1818.5129168939998
430 329 1221.0009194139
430 337 1000.1624461709999
430 399 647.44567534025998
430 429 -6062.3669879721001
430 430 14854.807528090001
431 307 8691.8715775750006
431 381 -147395.75755164999
431 431 371479.88857224997
432 317 -74025.949381619997
432 338 -114843.26617830001
432 103 1438.9320151644997
432 299 15042.567210204998
432 315 9800.4652573599978
432 343 -114015.99076026499
432 349 5445.6999411780007
432 382 1237.8686707764002
432 397 356.50620000000004
432 398 -15184.238986629001
432 381 6779.6599999999999
432 431 -40959.351999999999
432 432 171803.86675928999
433 330 -3813.2783777088002
433 317 1876.632798136
433 338 2818.0461764399997
433 343 1104.6157307479998
433 398 304.40923598160003
433 431 683.09439999999995
433 432 -8046.4015312431993
433 433 3212.7720369424001
434 306 -162012.15074728397
434 378 -30125.921827308001
434 434 126021.37902600998
435 87 205.9913190135
435 325 718.70597927250003
435 331 -8209.0000340099996
435 171 4880.0797264439998
435 347 11669.299655687999
435 383 -244952.26127963999
435 253 196.80666204379997
435 324 1181.9070607146
435 384 281.66939829759997
435 390 975.88665679719998
435 417 -12800.876973748
435 306 16703.554397627999
435 378 4616.5601406204005
435 434 -75817.156901891998
435 435 221158.48157001002
436 25 1533.0877674372
436 305 -52260.440237469003
436 365 -26997.385879233003
436 436 33735.697459839997
437 75 1491.1284267252001
437 309 6641.9894100120009
437 328 -168442.39838304001
437 253 488.04529880049995
437 324 2930.9179811835002
437 384 698.48969657600003
437 390 2420.0242515469999
437 417 -26479.897258184996
437 437 124529.94054399998
438 253 314.54937729929998
438 324 1889.0017548831001
438 384 450.18259503360002
438 390 1559.7263681142001
438 417 -9310.7461623822001
438 331 747.45432308700003
438 383 16577.075114567997
438 434 5249.6882624844002
438 435 -33746.635973045995
438 438 14469.972797440001
439 328 12258.057171576002
439 417 3095.0927744640999
439 437 -20627.974642138801
439 435 1956.9469549901999
439 438 -7081.4725254270998
439 439 7480.1447381089001
440 437 248.49264600548003
440 438 181.26343062701
440 439 -485.78554630163904
440 440 28.014716309449003
441 306 4167.6411596040007
441 379 -13785.208409908002
441 323 4188.2359317150003
441 393 -44917.153016175005
441 441 27243.08700304
442 58 256.19999385120002
442 319 -10653.709096800001
442 113 742.19070377620005
442 305 2225.9321112965995
442 345 -24147.534333047999
442 179 252.90772288319997
442 337 199.6132105632
442 360 501.78622696799999
442 388 -3846.2863743839998
442 206 48.345422606707992
442 392 -1817.8669035262399
442 252 378.14653813599995
442 406 881.18115152799987
442 416 -10533.91668192
442 379 1685.9993431346002
442 393 3750.3745499550005
442 441 -16641.825275708001
442 442 40427.295077160001
443 164 511.19313381400002
443 350 1856.3345142715
443 371 2195.317347398
443 381 993.94294519200002
443 382 -10990.004813253499
443 308 14795.324554749999
443 352 3952.8815123724999
443 373 4468.47506591
443 374 4386.7347736444999
443 401 2498.0015762389999
443 405 806.65975659649985
443 421 -44684.2607310155
443 443 9776.0856733280998
444 382 42.5520828712
444 421 121.25813616559999
444 443 -169.49196200406402
444 444 2.8408697981440003
445 118 116.09341629367999
445 347 -3162.2479214802001
445 309 7546.3726398720009
445 402 1137.5270822432001
445 421 1751.8948591936003
445 422 -35333.778530336007
445 445 43702.111550250003
446 347 933.21907984619997
446 422 9854.1607016159996
446 445 -38021.963374079998
446 446 13909.442606889999
447 445 192.93028272000001
447 446 -198.436172
447 447 2.7529446399999999
448 297 -1150.3887954112249
448 92 1485.6634804140001
448 337 -25891.062168132001
448 118 1768.3669108559998
448 347 -45959.979778439993
448 448 36476.034168999999
449 449 3549.3605437800998
450 450 1064.5635445225003
451 451 836.7152115609
452 452 3653.4336164496003
453 453 351.26818662249997
454 454 864.01899364000008
455 455 359.35723315840005
456 323 -5684.692357932
456 456 87762.877503999989
457 323 1703.692660488
457 456 -62850.86113592
457 457 79512.833192040009
458 69 228.55623407819999
458 309 235.7879039979
458 326 -2413.5431413301999
458 458 2599.6191033315999
459 459 49388.973037689997
460 460 429.63505996960004
461 461 316.93933178410003
462 462 2054.2686019215998
463 463 69.213547803024014
464 464 18355.561999289999
465 465 2012.5766130625
466 452 -5375.0815861627998
466 466 2920.9257984480996
467 467 2264.5844325224998
468 468 699.86861230090005
469 469 1076.5853450495999
470 462 -2137.6656094206
470 470 2809.9095536164
471 471 15217.04813476
472 472 562.21626320999997
473 473 32734.977369610002
474 474 63881.399855290001
475 464 -1643.0142856114203
475 462 469.52759930509995
475 470 -2381.2408009741998
475 475 3276.7473106943999
476 465 -1919.9009712638001
476 476 3043.1860514064006
477 477 807.26049602890009
478 478 34932.245462890001
479 462 -1953.2350292065
479 479 1405.7332974721
480 462 328.02388111110002
480 479 -2036.4277298931001
480 480 11864.873476000001
481 481 27777.788888889998
482 467 -2497.3447865939502
482 469 -3223.2024061274001
482 482 60197.064130809995
483 483 358.18514860839997
484 451 -1701.2444395500002
484 484 8098.3746815409004
485 485 5789.225482041601
486 452 -1197.1658839416
486 486 798.98541166890004
487 487 4781.4832439928996
488 467 61.199921908899007
488 469 83.183705424990009
488 482 -2149.2054865843202
488 488 2919.6104768964001
489 473 -21036.613343746001
489 478 -3229.2593419385003
489 489 34265.341881
490 474 -38205.401258099999
490 490 11317.342688999999
491 479 164.2054732977
491 480 -3611.7763751120001
491 491 38805.690470560003
492 122 68.829917452651998
492 348 -1647.8581816283599
492 492 5472.3109815049002
493 474 -9069.2271820349997
493 493 2165.6737542400001
494 494 10412.324864640001
495 495 2489.2076726415999
496 452 199.339455644
496 486 -1243.569381922
496 496 3127.4166013561003
497 479 121.36309609284
497 480 -1244.2379435186401
497 451 356.76176154750004
497 484 -3083.6558838195001
497 497 1133.2420045956001
498 498 10923.61515921
499 499 11414.272773759998
500 451 -1476.9382892880001
500 464 75.981720385744012
500 470 192.49795070511999
500 475 -1152.7580250792
500 479 96.651906506700001
500 480 -1257.9747150239
500 500 5197.9154057649002
501 473 -40940.040312240002
501 501 22706.330870440004
502 449 -1394.8184642685001
502 495 -912.39521622339998
502 502 2066.0061171555999
503 108 146.19881871345001
503 344 -2118.6466213202998
503 503 2365.5791693284
504 474 -17546.654061388999
504 504 6222.6980774464
505 478 -16976.056557328
505 505 118645.04471120999
506 498 -7641.1091999999999
506 506 7484.2621252568997
507 451 619.31380574599996
507 484 -5769.7402541403999
507 507 1874.0275632015998
508 456 10451.500418060001
508 457 -37133.857254585004
508 464 -1931.4634013028001
508 508 10860.12010161
509 487 -12072.116068805301
509 348 610.25471883123998
509 492 -18770.0628621961
509 498 -20740.451924010002
509 473 2494.0767427360001
509 501 -7427.2140671420011
509 509 47072.032128810002
510 460 -333.49795245536001
510 510 285.30351626490005
511 472 -498.71201735669996
511 511 960.85182571210009
512 467 53.348873490627007
512 469 72.512461434270008
512 482 -1649.8275996516602
512 512 334.57970391039993
513 480 2186.3649897239998
513 491 -81731.191723680007
513 513 59710.245706239999
514 471 -1043.1581976254399
514 514 1437.5350922255998
515 483 -113.4186749892
515 515 136.56072624639998
516 482 84.356641550879999
516 488 -875.47228737600005
516 516 418.99142371840003
517 478 -2590.9166586239999
517 483 -1323.749149624
517 473 867.58118051760005
517 501 -1537.10993339118
517 517 4630.0594238116
518 323 442.76783468820003
518 456 -15503.679299418
518 518 63797.767756840003
519 485 -7407.3108206094003
519 482 47.478514677507
519 488 -868.23940255702996
519 344 587.40606437969996
519 503 -2809.8570994737001
519 519 5966.6926966969004
520 520 3391.17546244
521 478 -3043.1158857554001
521 467 134.04321951723
521 469 182.19323389230001
521 482 -4325.7720486896997
521 521 886.14632660409995
522 449 152.29598745690001
522 495 109.74057427242001
522 502 -797.74610729940002
522 522 581.29788641439995
523 456 1677.40136876
523 457 -5046.2673790099998
523 523 2026.6113204099997
524 469 -585.02384565370005
524 524 164.3654766601
525 450 -1369.7080085944001
525 525 881.73779316490004
526 456 1569.3662366604001
526 518 -20179.679392152
526 526 12243.865104
527 478 -37713.890926079999
527 527 14899.79098609
528 469 -596.40594193391007
528 528 1456.2581049025
529 477 -1201.8250988249999
529 451 106.68269159415
529 484 -884.00545294194012
529 529 815.34062438889998
530 530 4064776.1446409998
531 530 -8032258
531 531 4000000
532 457 456.57102417999999
532 523 -4483.04159944
532 532 11344.145779209999
533 450 -729.93384041510001
533 454 -300.12553610416001
533 460 71.149661299136
533 510 -423.78851361210002
533 502 144.97970299470001
533 522 -758.82760542519998
533 533 1289.7521881344001
534 459 -9526.2840788419999
534 534 3800.3452113635999
535 465 -337.92411411970397
535 535 43.168868371203999
536 456 1848.5643300799998
536 457 -9384.21958696
536 461 -3268.3509322356003
536 481 -72746.464549290002
536 536 72798.515343999999
537 479 549.47220879840006
537 480 -5864.1500486016012
537 537 1560.8062095616003
538 478 9984.0249999999996
538 505 -223256.3125
538 538 136878.76282368999
539 486 607.86209007299999
539 496 -5139.5827061261998
539 451 119.44345468792
539 475 72.815811284703997
539 480 56.775077248179997
539 500 -1152.49280180142
539 469 165.09545541596
539 528 -2104.7049200836
539 539 4756.6622684735994
540 485 -4177.1217230586008
540 498 1860.4651999999999
540 506 -7479.1184760951992
540 540 5518.9164381481005
541 541 67605.200100000002
542 467 1671.5975756816001
542 469 2272.0564992159998
542 482 -86554.750857119987
542 542 38446.738946559992
543 471 -17121.91135378
543 465 690.42675264779996
543 476 -5923.2270483864004
543 543 11990.381400360002
544 323 1269.1481794068
544 456 -45083.659964111997
544 544 67878.590439039981
545 467 -4328.3101562499996
545 473 1388.1947220833999
545 478 209.67524699744999
545 489 -5998.2148902530998
545 545 3996.4004680681001
546 468 -2466.4720236289004
546 495 -4704.4176666648
546 546 4459.2478617600009
547 547 236.28055281640002
548 471 -950.34271493888991
548 548 239.86792202889998
549 471 -2911.6470930149999
549 499 -20724.856598225
549 549 11815.885660810001
550 541 -127502.5
550 550 62500
551 547 -188.4611328631
551 551 378.54371843999996
552 456 2977.9616140559997
552 457 -8706.4818598166003
552 461 251.96542153800002
552 481 3695.4924057650001
552 536 -7081.6457732195004
552 552 2457.2057194441004
553 454 -686.43179436370008
553 547 -382.67518527381003
553 553 531.26423768890004
554 449 147.88655933059999
554 495 106.56325369507999
554 502 -786.57189426039997
554 547 76.000751799699998
554 551 -626.92398677999995
554 554 634.07268864000002
555 453 -1870.9160231124999
555 474 1374.2872260014999
555 504 -7199.174622365399
555 478 184.77456393199998
555 483 276.74002767399998
555 501 127.77104914073999
555 517 -4842.3393933247989
555 520 -11350.350170441001
555 459 942.61384322449987
555 534 -7301.4343211856003
555 505 17959.768749999999
555 538 -32658.353839803996
555 555 39316.584312809995
556 465 -872.4658895028
556 556 1075.0319597824
557 456 1065.6431841432
557 457 -2955.4442476866006
557 462 210.2430392734
557 470 -701.00271634240005
557 557 379.27952001000006
558 464 -2742.2019285255737
558 470 127.57393985397999
558 475 -530.84507826191998
558 469 84.968231810419994
558 528 -715.77478048299997
558 558 1064.6646926399999
559 454 -574.76161764000005
559 483 29.569637269220003
559 515 -250.40994563264999
559 559 387.71382120249996
560 461 -489.73219330149999
560 560 3393.3677368643998
561 455 -542.90331694830002
561 561 609.72992714410009
562 449 -5990.1560347680006
562 472 -690.70869977375003
562 530 -33644.1864188455
562 562 4873.5547777225001
563 474 -2616.6120461895816
563 563 99.204767305281024
564 323 553.85089834619998
564 456 -16521.565352783
564 518 -72501.216077004792
564 526 -21738.887552336
564 564 80604.206717439985
565 464 -7338.9659271261198
565 470 265.6613127924
565 475 -2416.2033464855999
565 479 95.131391448450003
565 480 -1697.1305733725001
565 456 1859.7731950902
565 518 7412.9001482579997
565 526 2899.8116369436002
565 564 -22268.595182213998
565 565 19375.108830250003
566 323 2499.3314070985998
566 393 -29230.781410935397
566 408 -23963.380805211997
566 456 789.06673452640007
566 518 -13713.938108640001
566 566 56823.498778239999
567 487 -8157.9189276777006
567 473 5108.5565083013998
567 478 771.60489853395006
567 489 -39487.982715822007
567 492 1055.9103384193002
567 498 1055.9103384193002
567 501 330.63858255220003
567 509 -7792.0071781370007
567 393 5351.8267789479996
567 408 2737.9247727520001
567 518 3036.1898469759999
567 566 -54076.887086560004
567 567 67148.771508640013
568 393 1345.2683639919999
568 408 688.22174780799992
568 518 763.19550630399999
568 566 -7407.228596263999
568 568 1071.1095473961
569 452 333.20340293952
569 466 -1160.94029927568
569 474 -19270.138529114003
569 520 -2346.3587718470003
569 566 147.68866489440001
569 568 -768.96608458626008
569 569 11997.01805481
570 477 -570.07227864632
570 472 199.46982061679998
570 511 -1761.7979668544001
570 455 152.42411776899999
570 561 -909.42706037400001
570 570 2451.8887239025003
571 306 5646.5278373800002
571 378 1560.5981054340002
571 434 -12837.67676188
571 323 428.25075115199996
571 456 -9689.2416191199991
571 571 3408.0259108900004
572 353 -1441.9627276445001
572 478 177.357796826
572 483 265.63180860700004
572 501 122.64237723807001
572 517 -1999.3068031226001
572 487 312.98385190600004
572 489 1032.1511240130001
572 509 190.04416533700004
572 566 1262.1406985200001
572 567 -3549.0756962840005
572 572 2163.7122071184003
573 453 -471.55548131820001
573 450 169.58347924297999
573 525 -443.99372797791
573 541 -2881.4566537751998
573 573 775.48437015039997
574 523 2275.8305644059997
574 532 -16229.244693213999
574 457 468.50689782799998
574 461 313.04794108440001
574 481 4591.3692516069996
574 536 -10310.834947892999
574 574 10914.25252369
575 456 814.19928309720001
575 457 -3137.4629105312001
575 463 -1681.1387589942242
575 494 -30183.07680336
575 499 -3211.4421021599996
575 471 203.40584336123999
575 514 -7285.1645758895993
575 488 102.44882518848
575 516 -1867.6781564212799
575 461 284.70225019560002
575 481 4175.6325017929994
575 536 -11614.070182866
575 575 37540.380011560002
576 471 -1668.0612706042998
576 482 204.52283135253001
576 488 -2644.2027042453001
576 576 1503.7402640481
577 466 211.85769812400002
577 474 1587.8058701175
577 520 417.49288800750003
577 568 161.35542315450002
577 569 -4422.4954781850001
577 577 1491.7114103824001
578 460 -579.16744512000002
578 474 491.93241932309996
578 493 -1211.5743070592
578 578 789.39420674560006
579 327 -1224.3680348821001
579 471 -2014.6744728019
579 579 571.94205239610005
580 459 -80917.508881679998
580 473 339.86554888286003
580 478 51.333859561855
580 489 -2316.5915400316003
580 482 75.304702056869999
580 512 -2706.5949314628001
580 580 42694.551827559997
581 453 135.33267782709999
581 504 407.75564761769999
581 517 285.42893763379999
581 520 694.62791361610005
581 534 440.97166625509999
581 538 902.21774752340002
581 555 -3735.0509189929994
581 487 178.26839665425999
581 489 587.88951845972997
581 509 108.24478145377
581 566 718.88628536919998
581 567 -1975.9882106358
581 569 261.84868944750002
581 577 -686.50246987039998
581 581 1571.2186099599996
582 464 -24636.337446196401
582 479 82.688522637630001
582 480 -1368.3553142410999
582 451 488.95925502160003
582 475 794.05474835152006
582 500 -9324.7760167113993
582 461 333.63470535049998
582 560 -13728.850379065401
582 564 2122.2410950764001
582 565 -13947.931228446001
582 582 42730.760481640005
583 472 -281.07727604309997
583 477 58.994265185123993
583 511 176.46644878943999
583 561 98.829837128399987
583 570 -522.50700776891995
583 583 233.30485146239999
584 455 -651.18078681265001
584 479 212.01536241900001
584 480 -2894.2131039989999
584 491 10957.70458032
584 513 -19248.001361635997
584 584 6550.3787220480999
585 326 632.42936610330003
585 458 -3522.7432635555001
585 465 -643.00090004369997
585 471 59.158405479961004
585 548 -719.25381373938001
585 556 -2166.3286788924001
585 585 4587.3515454000999
586 487 386.74693611327001
586 492 591.34858951539002
586 498 591.34858951539002
586 501 185.16975572406002
586 509 -2151.0643818513599
586 555 134.29076240879999
586 567 56.576193780240004
586 577 75.037896237599995
586 581 -490.66570110239996
586 586 314.00619684840007
587 587 38449.209574089997
588 588 135983.34758464003
589 589 310.43726579290006
590 587 -100398.82539959998
590 590 124441.24030128999
591 587 8669.517515315998
591 590 -25735.206545135996
591 591 36195.252750249994
592 592 6921.3531164089
593 593 190761.56875876003
594 593 -40507.462348314002
594 594 12569.43688225
595 588 -127705.62728250001
595 595 178942.36704964002
596 593 -9619.6641903119998
596 596 6524.6571676225003
597 597 1985.4536840649
598 597 -1452.1745520153299
598 598 156495.95785849003
599 599 43880.110785639998
600 600 1300.3899512464002
601 593 -13060.537341139201
601 601 8498.8338463744003
602 597 -229.31030294280001
602 598 -4927.8523242888004
602 602 268.06988966559999
603 603 1670.0601969769002
604 592 -18086.2941365509
604 604 18010.337846759998
605 605 3054.7264733763996
606 599 -44644.388586399997
606 606 49985.646480090007
607 607 9823.9358626928988
608 588 -146367.75293324998
608 587 5444.2509581879995
608 590 -20520.705992595998
608 608 113389.31532888999
609 603 -4411.6035135941001
609 609 4500.4723605136005
610 589 -489.26355727448004
610 597 -1705.6305959501599
610 598 -1341.3600929256002
610 610 3170.6460460800999
611 597 162.37662376811898
611 598 -3607.6880008918006
611 592 2363.4848675502999
611 604 -5243.6697185661997
611 589 52.734138833152002
611 610 -850.06435719296007
611 611 2537.5983101764
612 600 -849.74131473
612 612 2048.4069520488997
613 381 67796.600000000006
613 431 -515678.76000000001
613 613 461999.43078916008
614 599 -36288.443427899998
614 431 10101.012000000001
614 613 -20488.410417477
614 614 17327.904860250001
615 615 238.00713915039998
616 607 -3567.0862813152003
616 616 7119.172687536101
617 607 1262.3455530084
617 616 -19387.273590129298
617 617 45876.842045439997
618 393 26106.930722640001
618 408 -727692.81611959997
618 618 356263.22750840994
619 593 -13985.2642361498
619 596 -15294.696797121998
619 408 22956.842148760003
619 618 -39338.906491247995
619 619 126112.70025224998
620 593 1966.4142230700002
620 596 3732.7369167599995
620 618 4395.9923685599997
620 619 -49096.445989499996
620 620 11317.342688999999
621 621 45139.46406025
622 599 12420.816420319999
622 606 -49449.795855459997
622 615 -1666.2895230798399
622 621 -23216.230607975998
622 622 34916.17376569
623 597 741.40246820309994
623 598 -139396.58357267999
623 623 50498.673904809999
624 624 23982.208071609999
625 625 346020.76816609007
626 605 -638.85079384073993
626 607 -8374.9871332053008
626 626 5145.7610172815994
627 597 178.90785657149297
627 598 -3614.5253265535302
627 589 58.309552730782002
627 610 -651.36249008371999
627 627 310.50492732250001
628 587 -9392.6892833900001
628 593 -27188.191851364001
628 588 31728.915756916998
628 595 -64658.087148704006
628 601 -23016.925858442002
628 590 2961.3841521558998
628 608 -85024.151336822993
628 628 268074.79628836003
629 600 -2279.7051635400003
629 605 -1737.0671037615998
629 629 2803.6739070729004
630 587 1969.7455247400001
630 593 4410.1362628260003
630 595 10288.700681112001
630 601 5649.0793865100004
630 608 14895.582454494001
630 628 -99919.162476000012
630 630 22410.269640360002
631 600 363.74093369319996
631 612 -3402.8006606351
631 605 88.954575934770006
631 607 866.87111657370008
631 626 -2196.8715465437999
631 631 2755.6389338724002
632 587 6411.3648737739995
632 590 -16037.528604055
632 588 17343.045959070001
632 595 -64527.645279764001
632 593 3519.6782304530002
632 601 4508.4642636549997
632 608 11887.990341007
632 628 -92140.443959080003
632 632 64240.045318439996
633 593 734.86203409760003
633 601 -5427.3301218766001
633 605 -4972.2633225215995
633 603 1071.4831196403002
633 609 -4123.0908576930005
633 633 8130.4738083395996
634 587 12114.358427556001
634 590 -37208.254148582004
634 634 43715.408173290001
635 597 -1325.1430852444921
635 598 -1197.88258043408
635 635 515.51520860159997
636 636 14868.65635641
637 636 -16448.491664886398
637 637 6567.0407497983997
638 607 -5232.1153964639998
638 636 -7913.8221384139997
638 638 5120.2368069888998
639 588 13785.496457126999
639 595 -118811.313989307
639 597 438.24016157459999
639 598 -181004.56592932
639 616 9691.7994572589996
639 617 -176308.21670661002
639 625 -914889.30326654017
639 600 289.07223853200003
639 605 181.1680085072
639 629 -11512.8014519771
639 639 935236.95685225003
640 589 -1421.09916798726
640 592 1880.1055320229002
640 604 -5563.4738069649102
640 597 220.01033894799997
640 598 86.072025842159007
640 610 -2225.6597323683723
640 611 -993.65211845978001
640 624 -3291.7533748799997
640 640 14242.322017439999
641 589 604.45598955499997
641 604 1241.6960420935002
641 610 710.80268328049999
641 611 321.69233368505002
641 624 659.60433623999995
641 640 -9576.1667205625017
641 641 3018.9585195025002
642 593 2626.3609565206002
642 594 -5360.3087499773001
642 615 -157.71537201104999
642 642 1483.1102147689001
643 593 503.7224745872
643 596 -14001.342300378499
643 621 -100051.6592387
643 643 189986.31822563999
644 431 101781.16
644 613 -302445.56681248004
644 596 6895.7422922829992
644 621 39267.4259809
644 643 -240402.010862
644 644 258985.11327363999
645 310 11111.112000000001
645 311 -235659.21329718002
645 593 2843.7359277690002
645 596 5398.108879892
645 618 6357.2777749520001
645 619 -136264.38307668001
645 645 281531.37238208996
646 593 201.14672129811999
646 594 -534.28266249154001
646 615 -423.81535502972002
646 311 21367.521153845999
646 619 11834.314319527
646 645 -47270.005745699091
646 646 7041.698693928899
647 593 -198518.99950500001
647 311 6124.5254899620004
647 619 3392.0434281690004
647 645 -18176.228840583
647 647 86311.036398759999
648 306 9202.2602287680002
648 378 -33363.095049071999
648 648 26520.936756249997
649 378 2730.0032126671999
649 648 -6539.5293079055991
649 649 1111.1115555556
650 306 6420.5488924559995
650 379 -19716.463842966001
650 650 19166.658069690002
651 456 12852.647786132
651 544 -82747.037387239994
651 651 68001.514441000007
652 544 16196.956592160001
652 651 -56592.929720640008
652 652 86341.828064040019
653 653 260727.37185609003
654 653 -1455.7471250000001
654 654 5138.6173612225002
655 378 3900.0040045240003
655 648 -16455.41034658
655 379 4645.7613751452
655 650 -26110.148586936
655 653 121.19565
655 654 -12332.639072264999
655 655 33383.346063209996
656 651 8503.4006802720014
656 652 -58135.796317530003
656 653 -271110.35781627998
656 654 -475.4786047385
656 656 163046.12182608998
657 651 1619.6956592160002
657 652 -6038.8672843908007
657 653 36.764700000000005
657 654 -2327.8362451931998
657 657 7501.0738443875998
658 653 290.88663358400004
658 654 -193.12138508549998
658 648 119.04762500000001
658 650 203.25205
658 655 -698.98994999999991
658 652 2333.0598486590002
658 656 -10728.740284750598
658 657 -6327.3664599911999
658 658 9386.6799726144
659 456 1686.9093134278
659 544 -12879.904189215
659 651 9448.2229780800008
659 652 -59985.774631478409
659 653 -173435.7273
659 654 430.50512283040001
659 657 -8789.8634327380005
659 655 56.818175000000004
659 656 487.0128961039
659 658 -10331.480123858601
659 659 127949.50462009003
660 590 9460.7357332070005
660 634 -103110.6833525
660 653 -604.08742135262003
660 648 35.536868443510002
660 650 60.672704404843998
660 654 37.168193399979998
660 655 -518.9619145219599
660 652 82.509073267392012
660 656 -907.41728928511998
660 660 262853.80463328992
661 624 -43379.644128959997
661 648 19.047620000000002
661 650 32.520327999999999
661 654 19.937757564481
661 655 -129.92684713868942
661 652 45.537345309654
661 653 165.16238145627008
661 656 -298.40906522978156
661 634 512.23456061529998
661 660 -2371.8612510411999
661 661 22140.160338490005
662 590 6770.4793974269996
662 591 -100187.06994387
662 653 -436.00402575790002
662 648 79.365099206349996
662 650 135.50139376694
662 654 84.528487159419996
662 655 -882.48331998921992
662 656 376.79976181593491
662 657 25.733594132792
662 658 -453.69298194673598
662 634 51948.041558439996
662 660 -372268.41224172252
662 624 200.92693972190003
662 661 -928.07865844610001
662 662 261181.50590463998
